p wcnf 8 30 155
155 1 2 0
155 1 3 0
155 1 4 0
155 1 5 0
155 1 7 0
155 1 8 0
155 2 3 0
155 2 5 0
155 2 6 0
155 2 7 0
155 3 4 0
155 3 5 0
155 3 6 0
155 3 8 0
155 4 5 0
155 4 7 0
155 4 8 0
155 5 6 0
155 5 7 0
155 5 8 0
155 6 7 0
155 7 8 0
16 -1 0
18 -2 0
18 -3 0
19 -4 0
19 -5 0
21 -6 0
21 -7 0
22 -8 0
